&INPUT
  fildyn = 'hg1245.dyn'
  flfrc  = 'hg1245.fc'
  zasr   = 'crystal'
/
