! ASSERT_CONVENTION: strain_sign=negative_compressive, functional=PBEsol

! La3Ni2O7 SCF at -1.20% strain (LAO substrate, a = 3.787 A)
! Phase 29-02, Task 1. From constrained-relaxed structure.
! Literature-expected: c ~ 20.75 A, c/a ~ 5.48

&CONTROL
   calculation  = 'scf'
   prefix       = 'la327_m1pct'
   outdir       = './tmp/'
   pseudo_dir   = './pseudo/'
   verbosity    = 'high'
/
&SYSTEM
   ibrav = 0, nat = 24, ntyp = 3
   ecutwfc = 80.0, ecutrho = 640.0
   occupations = 'smearing', smearing = 'mv', degauss = 0.02
   nspin = 1
/
&ELECTRONS
   conv_thr = 1.0d-10, mixing_beta = 0.3, diagonalization = 'david'
   electron_maxstep = 300
/
ATOMIC_SPECIES
   La 138.90547 La_ONCV_PBEsol-1.2.upf
   Ni  58.6934  Ni_ONCV_PBEsol-1.2.upf
   O   15.9994  O_ONCV_PBEsol-1.2.upf

! a = 3.787 A (LAO), c = 20.75 A (PBEsol-expected relaxed c under -1.20% strain)
CELL_PARAMETERS {angstrom}
   3.787000000   0.000000000   0.000000000
   0.000000000   3.787000000   0.000000000
   0.000000000   0.000000000  20.750000000

ATOMIC_POSITIONS {crystal}
   La   0.000000   0.000000   0.500000
   La   0.500000   0.500000   0.000000
   La   0.000000   0.000000   0.318000
   La   0.000000   0.000000   0.682000
   La   0.500000   0.500000   0.818000
   La   0.500000   0.500000   0.182000
   Ni   0.000000   0.000000   0.098000
   Ni   0.000000   0.000000   0.902000
   Ni   0.500000   0.500000   0.598000
   Ni   0.500000   0.500000   0.402000
   O    0.000000   0.000000   0.000000
   O    0.500000   0.500000   0.500000
   O    0.000000   0.000000   0.198000
   O    0.000000   0.000000   0.802000
   O    0.500000   0.500000   0.698000
   O    0.500000   0.500000   0.302000
   O    0.000000   0.500000   0.098000
   O    0.500000   0.000000   0.098000
   O    0.000000   0.500000   0.902000
   O    0.500000   0.000000   0.902000
   O    0.500000   0.000000   0.598000
   O    0.000000   0.500000   0.598000
   O    0.500000   0.000000   0.402000
   O    0.000000   0.500000   0.402000

K_POINTS {automatic}
   8 8 2   1 1 1
