! ASSERT_CONVENTION: strain_sign=negative_compressive, tc_definition=zero_resistance_primary,
!   units=SI_derived, functional=PBEsol, pseudopotentials=ONCV_SG15

! ============================================================================
! La3Ni2O7 -- unstrained SCF (from relaxed structure)
! Phase 29-01, Task 2
! ============================================================================

&CONTROL
   calculation  = 'scf'
   prefix       = 'la327_0pct'
   outdir       = './tmp/'
   pseudo_dir   = './pseudo/'
   verbosity    = 'high'
/

&SYSTEM
   ibrav        = 0
   nat          = 24
   ntyp         = 3
   ecutwfc      = 80.0
   ecutrho      = 640.0
   occupations  = 'smearing'
   smearing     = 'mv'
   degauss      = 0.02
   nspin        = 1
/

&ELECTRONS
   conv_thr     = 1.0d-10
   mixing_beta  = 0.3
   mixing_mode  = 'plain'
   diagonalization = 'david'
   electron_maxstep = 300
/

ATOMIC_SPECIES
   La  138.90547  La_ONCV_PBEsol-1.2.upf
   Ni   58.6934   Ni_ONCV_PBEsol-1.2.upf
   O    15.9994   O_ONCV_PBEsol-1.2.upf

! Use relaxed structure from vc-relax output
! (PBEsol-expected: a = 3.835 A, c = 20.50 A)
CELL_PARAMETERS {angstrom}
   3.835000000   0.000000000   0.000000000
   0.000000000   3.835000000   0.000000000
   0.000000000   0.000000000  20.500000000

ATOMIC_POSITIONS {crystal}
! Same positions as relax.in (will be updated from actual relaxed output)
   La   0.000000   0.000000   0.500000
   La   0.500000   0.500000   0.000000
   La   0.000000   0.000000   0.318000
   La   0.000000   0.000000   0.682000
   La   0.500000   0.500000   0.818000
   La   0.500000   0.500000   0.182000
   Ni   0.000000   0.000000   0.098000
   Ni   0.000000   0.000000   0.902000
   Ni   0.500000   0.500000   0.598000
   Ni   0.500000   0.500000   0.402000
   O    0.000000   0.000000   0.000000
   O    0.500000   0.500000   0.500000
   O    0.000000   0.000000   0.198000
   O    0.000000   0.000000   0.802000
   O    0.500000   0.500000   0.698000
   O    0.500000   0.500000   0.302000
   O    0.000000   0.500000   0.098000
   O    0.500000   0.000000   0.098000
   O    0.000000   0.500000   0.902000
   O    0.500000   0.000000   0.902000
   O    0.500000   0.000000   0.598000
   O    0.000000   0.500000   0.598000
   O    0.500000   0.000000   0.402000
   O    0.000000   0.500000   0.402000

K_POINTS {automatic}
   8 8 2   1 1 1
