! La3Ni2O7 DFPT phonon at -1.20% strain (LAO). Phase 29-03.
! Same parameters as 0% for fair comparison.

&INPUTPH
   prefix       = 'la327_m1pct'
   outdir       = './tmp/'
   fildyn       = 'la327_m1pct.dyn'
   tr2_ph       = 1.0d-14
   alpha_mix(1) = 0.3
   ldisp        = .true.
   nq1 = 4, nq2 = 4, nq3 = 1
   recover      = .true.
/
