! Candidate 3 bands -- high-symmetry k-path

&CONTROL
  calculation  = 'bands'
  prefix       = 'sl_cand3'
  outdir       = './tmp/'
  pseudo_dir   = './pseudo/'
  verbosity    = 'high'
/

&SYSTEM
  ibrav        = 0
  nat          = 32
  ntyp         = 6
  ecutwfc      = 90.0
  ecutrho      = 360.0
  input_dft    = 'pbesol'
  occupations  = 'smearing'
  smearing     = 'cold'
  degauss      = 0.02
  nspin        = 1
  nbnd         = 148
/

&ELECTRONS
  conv_thr     = 1.0d-8
/

ATOMIC_SPECIES
  Ba    137.327   Ba_ONCV_PBEsol-1.2.upf
  Cu     63.546   Cu_ONCV_PBEsol-1.2.upf
  Hg    200.590   Hg_ONCV_PBEsol-1.2.upf
  La    138.905   La_ONCV_PBEsol-1.2.upf
  Ni     58.693   Ni_ONCV_PBEsol-1.2.upf
  O      15.999   O_ONCV_PBEsol-1.2.upf

CELL_PARAMETERS {angstrom}
      3.918000      0.000000      0.000000
     -0.000000      3.918000      0.000000
      0.000000      0.000000     30.037000

ATOMIC_POSITIONS {crystal}
  Ba      0.500000      0.500000      0.776449
  Ba      0.500000      0.500000      0.907041
  La      0.000000      0.000000      0.341745
  La      0.500000      0.500000      0.000000
  La      0.000000      0.000000      0.217350
  La      0.000000      0.000000      0.466140
  La      0.500000      0.500000      0.559095
  La      0.500000      0.500000      0.124395
  Cu      0.000000      0.000000      0.841745
  Ni      0.000000      0.000000      0.066230
  Ni      0.000000      0.000000      0.617260
  Ni      0.500000      0.500000      0.407975
  Ni      0.500000      0.500000      0.275515
  Hg      0.000000      0.000000      0.683490
  O       0.000000      0.000000      0.000000
  O       0.500000      0.500000      0.341745
  O       0.000000      0.000000      0.170873
  O       0.000000      0.000000      0.512618
  O       0.500000      0.500000      0.512618
  O       0.500000      0.500000      0.170873
  O       0.000000      0.500000      0.066230
  O       0.000000      0.500000      0.617260
  O       0.500000      0.000000      0.066230
  O       0.500000      0.000000      0.617260
  O       0.500000      0.000000      0.407975
  O       0.500000      0.000000      0.275515
  O       0.000000      0.500000      0.407975
  O       0.000000      0.500000      0.275515
  O       0.500000      0.000000      0.841745
  O       0.000000      0.500000      0.841745
  O       0.000000      0.000000      0.733942
  O       0.000000      0.000000      0.949548

K_POINTS {crystal_b}
  8
  0.000000  0.000000  0.000000  20
  0.500000  0.000000  0.000000  20
  0.500000  0.500000  0.000000  20
  0.000000  0.000000  0.000000  20
  0.000000  0.000000  0.500000  20
  0.500000  0.000000  0.500000  20
  0.500000  0.500000  0.500000  20
  0.000000  0.000000  0.500000  0
